300
200
160
160
160
160
159
158
158
157
157
156
155
153
153
153
152
152
151
151
151
151
150
150
149
149
149
148
148
147
147
147
146
146
146
145
144
143
143
143
142
141
140
140
140
140
140
139
138
136
135
134
134
132
132
132
131
131
131
130
130
130
130
129
129
128
128
128
128
127
126
126
125
125
124
124
123
122
121
120
120
120
120
120
118
118
118
117
117
117
116
115
115
115
114
113
112
111
111
111
109
108
107
107
107
107
106
106
106
106
106
105
105
105
105
104
104
104
104
103
103
103
102
101
101
99
99
99
99
99
98
98
98
97
97
97
97
97
96
96
96
95
95
95
94
93
92
92
90
89
89
89
89
89
88
88
87
86
86
85
85
85
84
83
82
82
80
80
80
80
80
80
79
79
79
78
77
77
77
76
76
75
75
74
74
73
73
73
72
72
72
72
72
72
71
71
70
70
70
70
69
69
69
69
68
68
67
66
66
65
65
65
64
64
63
63
63
63
63
63
63
62
61
60
60
60
60
60
60
59
59
59
57
57
56
56
54
53
53
52
51
51
51
51
50
50
49
49
48
48
48
48
47
47
47
47
46
45
45
45
45
45
44
44
43
43
43
42
41
41
39
39
38
37
36
36
36
35
35
35
34
34
33
33
32
31
30
29
29
28
26
26
25
23
23
23
23
23
22
21
21
20
